S = 5;
start = [|0,0,11,0,20,0,0,3,0,0,0,0,0,9,0,0,0,2,0,0,1,0,0,17,22|
10,9,8,3,0,0,0,0,0,0,0,0,0,0,23,7,19,0,0,11,0,0,0,0,0|
0,0,0,4,0,0,5,0,0,16,0,1,0,3,0,0,0,14,18,0,0,0,0,6,12|
0,0,0,18,0,0,0,1,21,0,10,0,0,5,0,0,0,0,0,0,0,0,0,0,3|
0,13,0,0,0,0,11,2,0,0,0,0,25,0,0,0,0,0,0,0,24,0,0,0,0|
8,11,0,0,0,0,0,25,1,0,0,3,14,0,0,0,0,16,0,0,0,0,22,0,17|
0,0,0,12,0,0,0,0,0,0,0,0,0,0,0,0,0,0,0,0,0,8,0,0,0|
0,0,0,0,10,0,0,0,17,0,0,0,0,0,0,0,22,6,0,9,0,0,0,0,0|
0,0,0,0,0,0,0,0,0,0,0,0,0,0,0,0,18,7,0,0,0,0,0,0,0|
0,0,0,0,0,18,3,11,0,0,0,23,0,0,8,15,14,0,0,0,6,0,0,0,9|
0,0,0,21,0,0,0,8,25,0,3,15,0,17,0,5,0,11,0,22,13,0,18,0,0|
0,0,0,0,0,9,0,0,0,0,22,0,0,0,1,0,0,19,0,0,21,0,0,20,0|
0,0,0,0,0,0,0,0,0,0,0,10,8,16,0,0,0,0,4,0,0,0,0,0,6|
11,5,0,0,25,0,0,0,20,0,0,19,0,0,4,6,0,8,0,15,0,9,0,10,1|
0,0,3,0,0,0,0,0,5,0,0,0,0,0,0,0,0,0,0,0,11,0,4,8,24|
0,0,0,0,15,0,21,4,0,0,0,2,0,0,18,0,0,0,0,0,0,24,0,0,0|
9,0,0,0,4,3,0,0,0,0,16,0,0,23,0,0,0,0,24,0,0,6,0,0,0|
0,16,1,0,3,25,0,0,0,24,0,0,21,0,11,0,0,18,0,8,0,13,9,0,0|
0,19,0,0,0,0,0,5,0,0,20,0,3,0,0,0,0,0,0,0,0,0,0,0,8|
0,0,0,0,11,0,15,6,0,0,5,0,0,24,0,3,16,0,1,25,20,0,0,0,0|
25,20,0,0,23,13,12,0,0,0,0,0,9,1,0,0,24,0,2,0,0,0,0,21,0|
0,3,0,17,0,0,0,0,0,9,0,0,0,0,22,8,0,0,0,6,0,19,0,0,0|
0,10,0,11,8,17,0,0,0,4,23,12,0,0,0,0,0,0,9,0,0,0,0,0,0|
0,0,6,0,0,0,0,15,3,0,0,0,0,0,0,0,1,13,0,0,10,17,0,0,0|
0,0,0,2,5,0,0,0,0,0,0,17,0,0,10,4,3,0,0,12,0,0,8,0,13|];